
        $ From http://www.csplib.org/Problems/prob009/data/helmut.pdf
        $ Problem number 191
        $ Sequence length : 25
        language ESSENCE' 1.0
        letting sizemaster be 580
        letting sizes be sequence(2,5,7,10,12,13,19,21,22,29,36,40,61,65,74,101,135,139,161,179,183,192,205,209,236)
        